Problem:    RingLoading
Rows:       11
Columns:    91 (90 integer, 90 binary)
Non-zeros:  911
Status:     INTEGER OPTIMAL
Objective:  z = 195 (MINimum)

   No.   Row name        Activity     Lower bound   Upper bound
------ ------------    ------------- ------------- -------------
     1 MinMax[1]                 358           355               
     2 MinMax[2]                 348           342               
     3 MinMax[3]                 332           331               
     4 MinMax[4]                 328           328               
     5 MinMax[5]                 326           326               
     6 MinMax[6]                 338           338               
     7 MinMax[7]                 332           332               
     8 MinMax[8]                 342           335               
     9 MinMax[9]                 350           343               
    10 MinMaxSpeciale
                                 358           357               
    11 z                         195                             

   No. Column name       Activity     Lower bound   Upper bound
------ ------------    ------------- ------------- -------------
     1 x[2,1]       *              0             0             1 
     2 x[2,3]       *              1             0             1 
     3 x[2,4]       *              1             0             1 
     4 x[2,5]       *              1             0             1 
     5 x[2,6]       *              1             0             1 
     6 x[2,7]       *              1             0             1 
     7 x[2,8]       *              0             0             1 
     8 x[2,9]       *              0             0             1 
     9 x[2,10]      *              0             0             1 
    10 x[3,1]       *              0             0             1 
    11 x[3,4]       *              1             0             1 
    12 x[3,5]       *              1             0             1 
    13 x[3,6]       *              1             0             1 
    14 x[3,7]       *              1             0             1 
    15 x[3,8]       *              0             0             1 
    16 x[3,9]       *              0             0             1 
    17 x[3,10]      *              0             0             1 
    18 x[4,1]       *              0             0             1 
    19 x[4,5]       *              1             0             1 
    20 x[4,6]       *              1             0             1 
    21 x[4,7]       *              1             0             1 
    22 x[4,8]       *              1             0             1 
    23 x[4,9]       *              0             0             1 
    24 x[4,10]      *              0             0             1 
    25 x[5,1]       *              0             0             1 
    26 x[5,6]       *              1             0             1 
    27 x[5,7]       *              1             0             1 
    28 x[5,8]       *              1             0             1 
    29 x[5,9]       *              1             0             1 
    30 x[5,10]      *              0             0             1 
    31 x[6,1]       *              0             0             1 
    32 x[6,7]       *              1             0             1 
    33 x[6,8]       *              1             0             1 
    34 x[6,9]       *              1             0             1 
    35 x[6,10]      *              1             0             1 
    36 x[7,1]       *              1             0             1 
    37 x[7,8]       *              1             0             1 
    38 x[7,9]       *              1             0             1 
    39 x[7,10]      *              1             0             1 
    40 x[8,1]       *              1             0             1 
    41 x[8,9]       *              1             0             1 
    42 x[8,10]      *              1             0             1 
    43 x[9,1]       *              1             0             1 
    44 x[9,10]      *              1             0             1 
    45 x[10,1]      *              1             0             1 
    46 x[1,2]       *              1             0             1 
    47 x[1,3]       *              1             0             1 
    48 x[1,4]       *              0             0             1 
    49 x[1,5]       *              1             0             1 
    50 x[1,6]       *              1             0             1 
    51 x[1,7]       *              0             0             1 
    52 x[1,8]       *              0             0             1 
    53 x[1,9]       *              0             0             1 
    54 x[1,10]      *              0             0             1 
    55 x[3,2]       *              0             0             1 
    56 x[4,2]       *              0             0             1 
    57 x[4,3]       *              0             0             1 
    58 x[5,2]       *              0             0             1 
    59 x[5,3]       *              0             0             1 
    60 x[5,4]       *              0             0             1 
    61 x[6,2]       *              1             0             1 
    62 x[6,3]       *              0             0             1 
    63 x[6,4]       *              0             0             1 
    64 x[6,5]       *              0             0             1 
    65 x[7,2]       *              0             0             1 
    66 x[7,3]       *              0             0             1 
    67 x[7,4]       *              0             0             1 
    68 x[7,5]       *              0             0             1 
    69 x[7,6]       *              0             0             1 
    70 x[8,2]       *              1             0             1 
    71 x[8,3]       *              0             0             1 
    72 x[8,4]       *              0             0             1 
    73 x[8,5]       *              0             0             1 
    74 x[8,6]       *              0             0             1 
    75 x[8,7]       *              0             0             1 
    76 x[9,2]       *              1             0             1 
    77 x[9,3]       *              1             0             1 
    78 x[9,4]       *              1             0             1 
    79 x[9,5]       *              0             0             1 
    80 x[9,6]       *              0             0             1 
    81 x[9,7]       *              0             0             1 
    82 x[9,8]       *              0             0             1 
    83 x[10,2]      *              1             0             1 
    84 x[10,3]      *              1             0             1 
    85 x[10,4]      *              1             0             1 
    86 x[10,5]      *              0             0             1 
    87 x[10,6]      *              0             0             1 
    88 x[10,7]      *              0             0             1 
    89 x[10,8]      *              0             0             1 
    90 x[10,9]      *              0             0             1 
    91 delta                     195                             

Integer feasibility conditions:

KKT.PE: max.abs.err = 0.00e+000 on row 0
        max.rel.err = 0.00e+000 on row 0
        High quality

KKT.PB: max.abs.err = 0.00e+000 on row 0
        max.rel.err = 0.00e+000 on row 0
        High quality

End of output
